c SAT problem
p wcnf 383 1992
1 75 -3150 0
1 -75 -3135 0
1 90 -3105 0
1 90 -3150 0
1 90 3090 0
1 -90 -91 0
1 90 3165 0
1 -105 3105 0
1 -105 -3090 0
1 3120 -165 0
1 -3120 -135 0
1 -3120 3121 0
1 3120 -181 0
1 -3120 150 0
1 -3120 90 0
1 -3120 -60 0
1 -3120 -3135 0
1 3135 -135 0
1 -3135 3120 0
1 3135 150 0
1 -3135 90 0
1 3150 166 0
1 3150 136 0
1 -3150 75 0
1 -3150 3151 0
1 3150 60 0
1 3150 3165 0
1 -3165 -105 0
1 3165 75 0
1 -3165 181 0
1 -3165 -121 0
1 3165 90 0
1 -3165 60 0
1 -120 3075 0
1 -120 -3060 0
1 120 121 0
1 120 -3135 0
1 135 -3105 0
1 135 3075 0
1 150 -3075 0
1 150 165 0
1 150 3120 0
1 -150 -3090 0
1 150 -3060 0
1 150 -3000 0
1 -150 -3135 0
1 165 3045 0
1 165 -166 0
1 165 -3090 0
1 -165 3060 0
1 165 150 0
1 165 3000 0
1 -3060 240 0
1 -3060 -180 0
1 -3060 3061 0
1 3060 -120 0
1 3060 -90 0
1 -3075 195 0
1 3075 -105 0
1 3075 -180 0
1 -3075 -90 0
1 3090 -226 0
1 3090 -135 0
1 3090 -105 0
1 3090 181 0
1 -3090 255 0
1 3105 -226 0
1 3105 196 0
1 3105 -165 0
1 -3105 -135 0
1 3105 240 0
1 3105 -90 0
1 -3105 255 0
1 -180 195 0
1 180 -3075 0
1 -180 -3045 0
1 180 -3015 0
1 180 -181 0
1 180 -3000 0
1 195 3075 0
1 -195 3045 0
1 195 -3015 0
1 195 180 0
1 -210 225 0
1 210 3075 0
1 210 -211 0
1 210 3030 0
1 -225 -3075 0
1 3000 225 0
1 -3000 165 0
1 -3000 180 0
1 -3000 -3001 0
1 -3015 -165 0
1 3015 -300 0
1 3015 -210 0
1 -3030 195 0
1 -3030 165 0
1 3030 -270 0
1 -3030 -240 0
1 3030 -180 0
1 3030 -150 0
1 -3030 -315 0
1 3030 -255 0
1 3045 -225 0
1 -3045 -300 0
1 -3045 270 0
1 -3045 -240 0
1 -3045 -210 0
1 3045 -150 0
1 3045 315 0
1 3045 -255 0
1 61 3330 0
1 61 -76 0
1 61 3345 0
1 61 -3315 0
1 61 62 0
1 76 -3330 0
1 -76 -3315 0
1 91 -3240 0
1 91 -3345 0
1 91 -3255 0
1 106 -3300 0
1 -106 -3270 0
1 -106 -3345 0
1 -106 -3315 0
1 106 -3285 0
1 -106 91 0
1 -3300 136 0
1 3300 -76 0
1 3300 61 0
1 -3315 -166 0
1 -3315 3316 0
1 -3315 -182 0
1 3315 -121 0
1 3330 3331 0
1 -3330 167 0
1 3330 -137 0
1 -3330 122 0
1 3345 -3330 0
1 -3345 -76 0
1 3345 -182 0
1 3345 -122 0
1 3345 91 0
1 -3345 61 0
1 121 -3300 0
1 121 -3315 0
1 121 -3285 0
1 121 3255 0
1 -121 -122 0
1 -136 3270 0
1 -136 -3150 0
1 136 3285 0
1 136 -3255 0
1 -136 3165 0
1 151 3240 0
1 -151 -3180 0
1 -151 -3315 0
1 151 -3285 0
1 151 -3255 0
1 -151 -3195 0
1 -151 3165 0
1 -166 -3180 0
1 -166 -3150 0
1 166 -3315 0
1 166 151 0
1 166 -3225 0
1 -166 3165 0
1 -3240 -256 0
1 -3240 226 0
1 3240 166 0
1 -3240 241 0
1 -3240 -211 0
1 -3240 -181 0
1 3240 -121 0
1 -3240 -91 0
1 3255 -256 0
1 -3255 3240 0
1 -3255 -106 0
1 -3255 211 0
1 -3255 -181 0
1 -3255 -151 0
1 -3255 -121 0
1 3255 -91 0
1 3270 227 0
1 -3270 -197 0
1 3270 -91 0
1 -3285 256 0
1 3285 -166 0
1 -3285 -3270 0
1 3285 -241 0
1 -3285 -212 0
1 -3285 182 0
1 3285 151 0
1 -3285 91 0
1 181 -3150 0
1 181 -180 0
1 -181 3135 0
1 196 3105 0
1 196 -3150 0
1 196 -181 0
1 211 -3136 0
1 -211 -3105 0
1 -211 -3240 0
1 -211 3210 0
1 -211 3180 0
1 211 -3090 0
1 -211 -3255 0
1 -211 -3225 0
1 -211 -3166 0
1 -226 3136 0
1 226 3210 0
1 226 3090 0
1 226 -3166 0
1 -3180 -226 0
1 -3180 -196 0
1 -3180 166 0
1 -3180 240 0
1 3195 196 0
1 3195 -301 0
1 3195 3196 0
1 -3195 211 0
1 3195 151 0
1 -3195 -255 0
1 -3210 -256 0
1 -3210 -226 0
1 -3210 166 0
1 3210 271 0
1 -3210 241 0
1 -3210 181 0
1 -3210 -151 0
1 -3210 286 0
1 -3225 256 0
1 -3225 241 0
1 -3225 -3226 0
1 -240 -3045 0
1 -240 -3180 0
1 -240 -3151 0
1 -240 241 0
1 240 -3090 0
1 -240 -3121 0
1 -240 3060 0
1 240 3195 0
1 240 -3166 0
1 255 256 0
1 255 -3180 0
1 255 3151 0
1 255 -240 0
1 -255 3030 0
1 270 3106 0
1 -270 -3045 0
1 270 -285 0
1 285 3106 0
1 285 -3180 0
1 -285 270 0
1 285 -3121 0
1 285 3061 0
1 3121 -3136 0
1 3121 300 0
1 3121 -3120 0
1 3121 3122 0
1 -3121 -376 0
1 3121 -255 0
1 -3136 226 0
1 -3136 -361 0
1 3136 330 0
1 3136 -300 0
1 3136 270 0
1 -3136 -240 0
1 3136 211 0
1 3136 345 0
1 -3136 315 0
1 -3136 255 0
1 3151 -361 0
1 -3151 3152 0
1 3151 211 0
1 -3151 346 0
1 -3151 285 0
1 3151 -255 0
1 3166 -3151 0
1 -3166 -346 0
1 3166 3167 0
1 300 3136 0
1 300 3106 0
1 -300 3121 0
1 300 3000 0
1 300 315 0
1 315 -3136 0
1 315 -3106 0
1 315 -3045 0
1 315 3015 0
1 -315 -3121 0
1 -315 -316 0
1 -330 3136 0
1 330 3106 0
1 330 3046 0
1 330 -345 0
1 -330 3121 0
1 330 3091 0
1 -330 3031 0
1 -330 3001 0
1 345 -3136 0
1 345 -3106 0
1 -345 3076 0
1 345 3016 0
1 345 -330 0
1 -345 3091 0
1 345 -3031 0
1 345 3001 0
1 -345 -346 0
1 -3061 -420 0
1 -3061 -3076 0
1 -3061 360 0
1 -3061 -330 0
1 -3061 435 0
1 3061 3060 0
1 -3061 405 0
1 3061 -3062 0
1 3061 375 0
1 -3061 345 0
1 -3061 -285 0
1 -3076 -3075 0
1 3076 -360 0
1 3076 300 0
1 -3076 -345 0
1 3076 285 0
1 -3091 420 0
1 3091 -391 0
1 -3091 361 0
1 -3091 -3090 0
1 -3091 -3092 0
1 -3091 -376 0
1 -3091 345 0
1 3091 315 0
1 -3106 3105 0
1 -3106 -361 0
1 -3106 345 0
1 3106 -285 0
1 360 -3076 0
1 -360 3001 0
1 -375 3076 0
1 -375 -3001 0
1 -390 -3016 0
1 390 3031 0
1 -390 3001 0
1 -405 390 0
1 -405 -3016 0
1 405 406 0
1 -3001 390 0
1 3001 3016 0
1 3001 330 0
1 3001 495 0
1 -3001 375 0
1 -3016 -495 0
1 -3016 -405 0
1 -3031 -390 0
1 3031 -3046 0
1 3031 330 0
1 3031 465 0
1 3031 -435 0
1 3031 -405 0
1 3046 3047 0
1 3046 360 0
1 3046 -495 0
1 -3046 3031 0
1 -3046 435 0
1 62 3480 0
1 -62 -61 0
1 62 63 0
1 77 -3495 0
1 77 -76 0
1 -77 3480 0
1 -92 107 0
1 92 -3450 0
1 92 93 0
1 107 -3525 0
1 107 -3435 0
1 107 108 0
1 107 3510 0
1 -107 -3420 0
1 107 3450 0
1 -107 -92 0
1 -3480 198 0
1 -3480 167 0
1 3480 -3495 0
1 -3480 107 0
1 3480 -77 0
1 -3480 152 0
1 3480 92 0
1 3480 -62 0
1 -3495 -167 0
1 3495 3496 0
1 -3495 -122 0
1 3495 92 0
1 -3510 198 0
1 -3510 107 0
1 3510 -183 0
1 3510 123 0
1 -3525 153 0
1 122 -3330 0
1 122 3345 0
1 -122 3480 0
1 122 3420 0
1 -137 3465 0
1 137 3450 0
1 137 -3345 0
1 -137 -122 0
1 -137 -3420 0
1 -152 3360 0
1 152 -3330 0
1 152 -167 0
1 -152 3435 0
1 152 3405 0
1 -152 -151 0
1 -152 -3480 0
1 -152 -153 0
1 167 3360 0
1 167 -3330 0
1 167 3480 0
1 167 3495 0
1 167 3465 0
1 -167 -3435 0
1 -167 -3405 0
1 -167 -3345 0
1 -3420 -197 0
1 -3420 -137 0
1 -3420 107 0
1 -3420 152 0
1 -3420 92 0
1 3435 -227 0
1 -3435 -167 0
1 -3435 -137 0
1 -3435 -107 0
1 -3435 -182 0
1 3435 -3420 0
1 -3435 -122 0
1 -3450 -257 0
1 -3450 -198 0
1 -3450 -3465 0
1 -3450 -107 0
1 3450 -213 0
1 3450 -183 0
1 -3465 -228 0
1 3465 198 0
1 3465 -167 0
1 -3465 3466 0
1 3465 213 0
1 -182 3270 0
1 -182 3405 0
1 -182 3315 0
1 182 3390 0
1 197 3330 0
1 -197 -3300 0
1 197 -3270 0
1 197 -198 0
1 197 -3375 0
1 197 3315 0
1 -197 182 0
1 -197 -3420 0
1 -212 -3360 0
1 -212 -3270 0
1 212 -3405 0
1 -212 3346 0
1 -212 -211 0
1 212 -3316 0
1 212 -3285 0
1 227 -3331 0
1 227 -3270 0
1 227 3405 0
1 -227 -3346 0
1 -227 3285 0
1 -3360 256 0
1 -3360 3361 0
1 3360 -302 0
1 -3360 -271 0
1 3360 -3375 0
1 -3360 -241 0
1 -3375 -3360 0
1 -3375 167 0
1 3375 -271 0
1 -3375 3376 0
1 -3375 -212 0
1 3375 182 0
1 3375 152 0
1 -3375 317 0
1 -3390 257 0
1 3390 -3391 0
1 3390 167 0
1 -3390 272 0
1 3390 212 0
1 -3390 -287 0
1 -3405 197 0
1 3405 167 0
1 -3405 -272 0
1 3405 -212 0
1 241 -3240 0
1 -241 -3210 0
1 241 -242 0
1 -241 -3285 0
1 241 3225 0
1 -256 -257 0
1 -256 -3301 0
1 -256 3270 0
1 -256 -3375 0
1 -256 3316 0
1 256 3285 0
1 -256 3225 0
1 -256 -255 0
1 -271 -3360 0
1 -271 -3331 0
1 -271 -3241 0
1 -271 -270 0
1 271 -3375 0
1 -271 3286 0
1 271 -286 0
1 -286 -3331 0
1 -286 -3301 0
1 -286 -271 0
1 286 3316 0
1 3301 256 0
1 -3301 -3302 0
1 3301 -3316 0
1 -3301 -377 0
1 3316 227 0
1 -3316 -331 0
1 3316 -271 0
1 -3316 212 0
1 -3316 316 0
1 -3316 -286 0
1 -3331 3330 0
1 3331 -227 0
1 -3331 -332 0
1 3331 -302 0
1 3331 241 0
1 -3331 347 0
1 -3331 317 0
1 3346 3331 0
1 -3346 -362 0
1 -3346 -332 0
1 -3346 -271 0
1 -3346 241 0
1 -3346 -317 0
1 3346 -286 0
1 -301 302 0
1 301 3316 0
1 301 3195 0
1 -301 -316 0
1 316 3301 0
1 316 -3271 0
1 -316 3241 0
1 -316 -3210 0
1 -316 -3180 0
1 316 3151 0
1 -316 3316 0
1 316 3256 0
1 -316 -317 0
1 -316 -3166 0
1 -331 -3301 0
1 -331 3226 0
1 -331 3271 0
1 331 330 0
1 -331 -332 0
1 -331 3316 0
1 331 -3256 0
1 346 3241 0
1 -346 331 0
1 346 -3151 0
1 346 -3166 0
1 -3241 -436 0
1 3241 -346 0
1 -3241 316 0
1 -3241 -286 0
1 3256 -421 0
1 3256 361 0
1 3256 3241 0
1 3256 -436 0
1 3256 406 0
1 -3256 316 0
1 -3271 392 0
1 3271 -301 0
1 3271 -346 0
1 3271 -316 0
1 3271 -286 0
1 -3286 421 0
1 3286 -392 0
1 3286 362 0
1 -3286 331 0
1 -3286 -271 0
1 3286 436 0
1 3286 3285 0
1 3286 -407 0
1 -3286 -286 0
1 361 3106 0
1 -361 -3256 0
1 -361 -360 0
1 -361 3241 0
1 -361 3211 0
1 -361 -3181 0
1 361 3151 0
1 -361 -3121 0
1 361 3091 0
1 -361 -3226 0
1 361 -3196 0
1 -361 -3166 0
1 -376 -3181 0
1 -376 -377 0
1 391 3152 0
1 391 3226 0
1 -391 3196 0
1 406 -3137 0
1 -406 3211 0
1 406 3181 0
1 406 3152 0
1 406 -3122 0
1 -406 -405 0
1 -3181 -496 0
1 3181 406 0
1 3181 376 0
1 -3181 -3196 0
1 -3196 -331 0
1 -3196 -3181 0
1 -3196 435 0
1 -3196 -406 0
1 -3196 -3195 0
1 3211 421 0
1 3211 361 0
1 -3211 331 0
1 -3211 3212 0
1 -3211 -496 0
1 -3211 -406 0
1 3211 346 0
1 3226 481 0
1 -3226 -451 0
1 -3226 -391 0
1 3226 -361 0
1 -3226 496 0
1 -3226 -406 0
1 3226 376 0
1 420 3137 0
1 -420 3076 0
1 420 3122 0
1 420 -3196 0
1 -435 -420 0
1 -435 -3076 0
1 435 -3046 0
1 435 -436 0
1 435 3031 0
1 435 3196 0
1 450 -3107 0
1 -450 3077 0
1 450 -3181 0
1 450 3122 0
1 -450 3167 0
1 465 -3181 0
1 -465 -3196 0
1 3122 450 0
1 -3122 -495 0
1 3122 465 0
1 3122 3121 0
1 3122 406 0
1 -3122 -510 0
1 3137 -450 0
1 -3137 3138 0
1 3137 -420 0
1 3137 556 0
1 3137 525 0
1 -3137 -3122 0
1 -3137 541 0
1 -3152 -420 0
1 -3152 -3153 0
1 3152 406 0
1 -3152 -3167 0
1 -3152 511 0
1 3167 -450 0
1 -3167 -391 0
1 3167 -496 0
1 -480 3016 0
1 480 3092 0
1 480 -3031 0
1 -480 3001 0
1 495 -3107 0
1 495 -496 0
1 -495 -3122 0
1 510 -3137 0
1 -510 -525 0
1 510 3122 0
1 510 -3032 0
1 525 -3047 0
1 -525 526 0
1 525 -3092 0
1 -525 -510 0
1 3062 480 0
1 -3062 -3077 0
1 3062 -615 0
1 3062 -585 0
1 -3062 525 0
1 3062 -495 0
1 3062 465 0
1 3062 -3061 0
1 3062 -570 0
1 -3077 -585 0
1 -3077 525 0
1 -3077 -495 0
1 -3077 465 0
1 -3077 -3062 0
1 3077 600 0
1 -3077 570 0
1 -3077 510 0
1 -3092 480 0
1 -3092 615 0
1 3092 586 0
1 3092 556 0
1 3092 525 0
1 3092 465 0
1 -3092 571 0
1 -3107 -556 0
1 3107 600 0
1 3107 -541 0
1 -540 -3077 0
1 540 3062 0
1 540 3002 0
1 -555 3047 0
1 -555 -540 0
1 -570 3077 0
1 -570 3047 0
1 -570 585 0
1 570 -3062 0
1 -570 3032 0
1 585 -3017 0
1 -585 586 0
1 -585 -3032 0
1 3002 585 0
1 -3002 3017 0
1 -3002 555 0
1 3002 -525 0
1 -3002 570 0
1 3002 -3003 0
1 -3017 -3002 0
1 3017 -675 0
1 3017 -3016 0
1 -3017 555 0
1 3017 540 0
1 -3017 -510 0
1 3032 675 0
1 3032 -615 0
1 3032 3047 0
1 3032 660 0
1 3032 630 0
1 3032 570 0
1 3032 540 0
1 3032 -510 0
1 3047 -645 0
1 -3047 -3046 0
1 3047 -615 0
1 3047 3048 0
1 3047 585 0
1 3047 555 0
1 3047 630 0
1 3047 -600 0
1 3047 570 0
1 63 -3660 0
1 -63 -62 0
1 78 -3660 0
1 78 77 0
1 78 3705 0
1 -93 3690 0
1 -93 108 0
1 -93 -3600 0
1 -93 3675 0
1 -108 -3645 0
1 -108 -107 0
1 -108 3675 0
1 108 -93 0
1 3660 108 0
1 -3660 3661 0
1 3660 3675 0
1 3675 123 0
1 3675 3676 0
1 3675 -63 0
1 3690 108 0
1 3690 -78 0
1 3690 93 0
1 3705 3690 0
1 3705 108 0
1 -3705 3706 0
1 -123 3525 0
1 -123 -138 0
1 -123 -3630 0
1 123 3600 0
1 -123 3510 0
1 -123 122 0
1 138 -3525 0
1 138 -3615 0
1 153 3555 0
1 153 -3525 0
1 153 3660 0
1 153 -3630 0
1 -153 -3570 0
1 153 -3510 0
1 -153 3645 0
1 153 -3615 0
1 -168 -167 0
1 -168 3630 0
1 168 -3675 0
1 -168 3645 0
1 168 -3615 0
1 3600 -258 0
1 -3600 198 0
1 3600 138 0
1 3600 3601 0
1 -3600 -213 0
1 -3600 183 0
1 -3600 153 0
1 3600 -93 0
1 -3615 3616 0
1 3615 198 0
1 3615 108 0
1 -3615 3600 0
1 -3615 243 0
1 -3615 -213 0
1 3630 -258 0
1 3630 3645 0
1 3630 -138 0
1 -3630 -108 0
1 3630 -243 0
1 3645 168 0
1 -3645 138 0
1 3645 3630 0
1 3645 -243 0
1 -3645 153 0
1 3645 -3646 0
1 183 3585 0
1 -183 3525 0
1 183 -3600 0
1 -183 3570 0
1 183 -3510 0
1 183 3615 0
1 198 3585 0
1 198 -3465 0
1 198 -3570 0
1 198 3480 0
1 198 -3450 0
1 -198 3615 0
1 213 -3585 0
1 -213 3600 0
1 -213 -3570 0
1 213 212 0
1 228 227 0
1 228 3526 0
1 -228 3496 0
1 228 -3600 0
1 -228 3481 0
1 228 3450 0
1 -3540 -168 0
1 3540 213 0
1 -3540 3541 0
1 3540 -183 0
1 -3555 257 0
1 3555 -303 0
1 -3555 -213 0
1 3570 258 0
1 -3570 -228 0
1 3570 -303 0
1 3570 213 0
1 -3570 183 0
1 3585 -258 0
1 -3585 228 0
1 3585 -168 0
1 3585 -303 0
1 -3585 -153 0
1 -242 -257 0
1 242 3526 0
1 -242 3496 0
1 -242 3450 0
1 -257 3435 0
1 -257 3481 0
1 257 -3420 0
1 -272 3526 0
1 272 3436 0
1 272 3405 0
1 272 -3511 0
1 272 -3481 0
1 -272 3421 0
1 -287 3555 0
1 -287 3496 0
1 287 -272 0
1 -287 -3421 0
1 -3481 332 0
1 3481 -242 0
1 -3481 213 0
1 3481 3480 0
1 3481 -347 0
1 -3481 -317 0
1 3481 -287 0
1 -3496 257 0
1 -3496 363 0
1 3496 -272 0
1 -3496 3481 0
1 -3496 317 0
1 3511 257 0
1 -3511 -3526 0
1 -3511 -363 0
1 -3511 -213 0
1 -3511 378 0
1 -3526 -3527 0
1 -3526 -363 0
1 -3526 -333 0
1 -3526 -242 0
1 -3526 -378 0
1 -3526 -348 0
1 -3526 -287 0
1 -302 -3496 0
1 -302 -301 0
1 302 3405 0
1 -302 -3481 0
1 -302 -3451 0
1 302 -317 0
1 -317 -3360 0
1 317 3390 0
1 317 3496 0
1 317 3466 0
1 -317 3436 0
1 317 -3375 0
1 317 3346 0
1 332 3496 0
1 332 3466 0
1 -332 331 0
1 -332 -3406 0
1 332 -3376 0
1 -332 3451 0
1 332 -347 0
1 332 -3391 0
1 347 -3361 0
1 -347 -3331 0
1 -347 332 0
1 347 -3406 0
1 -347 -346 0
1 -347 -3391 0
1 -3421 -422 0
1 -3421 3436 0
1 -3421 -272 0
1 3421 377 0
1 3421 3420 0
1 -3421 287 0
1 3436 -392 0
1 -3436 3437 0
1 -3436 302 0
1 -3436 -272 0
1 3436 437 0
1 3436 3421 0
1 -3451 -422 0
1 3451 -363 0
1 3451 -302 0
1 3451 272 0
1 -3451 437 0
1 3451 317 0
1 3466 422 0
1 -3466 -393 0
1 -3466 363 0
1 3466 -3451 0
1 -3466 -437 0
1 -3466 -408 0
1 362 -3331 0
1 362 361 0
1 362 3436 0
1 362 3346 0
1 362 -377 0
1 -362 3391 0
1 377 3331 0
1 -377 3301 0
1 377 3346 0
1 377 3421 0
1 -392 3332 0
1 -392 -391 0
1 392 -3436 0
1 392 3406 0
1 392 -3317 0
1 -392 -3421 0
1 -407 -3361 0
1 407 3436 0
1 407 -406 0
1 -407 408 0
1 -3361 -332 0
1 3361 497 0
1 3361 377 0
1 -3376 -482 0
1 3376 451 0
1 -3376 362 0
1 -3376 -466 0
1 -3376 -377 0
1 3391 -3392 0
1 3391 482 0
1 -3391 452 0
1 3391 -362 0
1 3391 347 0
1 3391 3390 0
1 3406 452 0
1 -3406 422 0
1 3406 3407 0
1 3406 -497 0
1 3406 -467 0
1 3406 347 0
1 -421 420 0
1 -421 3332 0
1 421 3347 0
1 -421 -3226 0
1 436 3332 0
1 -436 3302 0
1 436 -3241 0
1 436 3211 0
1 436 3376 0
1 436 3347 0
1 436 -437 0
1 -436 -3317 0
1 436 3256 0
1 436 -3226 0
1 -451 3361 0
1 -451 -3272 0
1 -451 3376 0
1 -451 -466 0
1 -451 -3317 0
1 -451 3287 0
1 -466 3332 0
1 -466 -3242 0
1 -466 3211 0
1 -466 -3376 0
1 -466 465 0
1 -466 3347 0
1 466 3226 0
1 -3302 -451 0
1 -3302 3303 0
1 -3302 526 0
1 3302 -466 0
1 -3302 3317 0
1 -3317 451 0
1 3317 -526 0
1 -3317 -496 0
1 3317 -466 0
1 -3317 -3316 0
1 -3317 3318 0
1 -3332 -482 0
1 3332 451 0
1 3332 3331 0
1 3332 -466 0
1 3332 -436 0
1 -3332 407 0
1 -3347 -482 0
1 3347 -451 0
1 3347 3332 0
1 3347 -557 0
1 3347 -3346 0
1 3347 436 0
1 -3347 -3348 0
1 481 -3211 0
1 481 -496 0
1 481 -3317 0
1 481 3167 0
1 496 -3272 0
1 -496 -3242 0
1 -496 -3152 0
1 -496 -3287 0
1 496 -3196 0
1 496 -3167 0
1 -511 -3302 0
1 511 3152 0
1 511 3287 0
1 511 3257 0
1 -511 -3227 0
1 511 3197 0
1 -526 -3302 0
1 -526 3212 0
1 526 525 0
1 -526 -527 0
1 -526 3152 0
1 3242 451 0
1 3242 3241 0
1 -3242 -556 0
1 3242 -496 0
1 3242 -466 0
1 3242 601 0
1 3242 -571 0
1 -3242 541 0
1 3257 481 0
1 -3257 451 0
1 3257 -616 0
1 -3257 3242 0
1 3257 556 0
1 3257 526 0
1 -3257 496 0
1 3257 -601 0
1 -3257 -571 0
1 3257 541 0
1 3272 451 0
1 3272 3271 0
1 3272 -3273 0
1 -3272 587 0
1 -3272 557 0
1 3272 -526 0
1 -3272 496 0
1 3272 -466 0
1 -3272 3287 0
1 -3272 -601 0
1 -3272 511 0
1 -3287 -587 0
1 3287 -526 0
1 3287 -511 0
1 -541 -3182 0
1 541 -3152 0
1 541 -3197 0
1 541 3167 0
1 556 -555 0
1 556 -557 0
1 -556 -3122 0
1 556 3167 0
1 571 -3168 0
1 571 586 0
1 -571 -3242 0
1 571 -3212 0
1 -571 3123 0
1 -571 -3257 0
1 -571 -3227 0
1 -586 -585 0
1 -586 3227 0
1 -586 -3182 0
1 586 3153 0
1 586 3257 0
1 -586 571 0
1 -3182 645 0
1 -3182 556 0
1 -3182 3183 0
1 3182 -3197 0
1 3182 571 0
1 3197 645 0
1 -3197 615 0
1 -3197 586 0
1 3197 -556 0
1 -3197 630 0
1 3197 600 0
1 3197 571 0
1 3212 -646 0
1 3212 -616 0
1 -3212 -3213 0
1 3227 616 0
1 3227 586 0
1 -3227 526 0
1 3227 -661 0
1 3227 601 0
1 -3227 571 0
1 3227 -3228 0
1 -3227 -541 0
1 -600 -3168 0
1 -600 -3047 0
1 -600 -3182 0
1 600 3123 0
1 -600 -3092 0
1 -600 601 0
1 615 -3182 0
1 615 3062 0
1 -615 -3032 0
1 -615 -3197 0
1 630 645 0
1 -630 3182 0
1 630 3153 0
1 -630 3123 0
1 -630 -3063 0
1 645 -3108 0
1 -645 -646 0
1 645 -3153 0
1 645 -3093 0
1 -645 -3197 0
1 -3123 -736 0
1 -3123 -675 0
1 3123 -721 0
1 -3123 -690 0
1 3123 3122 0
1 -3123 630 0
1 -3138 736 0
1 3138 -705 0
1 3138 -675 0
1 3138 -586 0
1 -3138 571 0
1 3153 -645 0
1 -3153 721 0
1 -3153 691 0
1 -3153 -630 0
1 -3153 -571 0
1 -3168 -3153 0
1 3168 691 0
1 -3168 -571 0
1 660 3138 0
1 -660 675 0
1 -660 -3108 0
1 -660 -3078 0
1 -660 -3017 0
1 660 -661 0
1 675 676 0
1 690 705 0
1 690 -3138 0
1 690 -3108 0
1 -690 691 0
1 690 -3093 0
1 -690 -3063 0
1 -705 -706 0
1 705 -3048 0
1 -705 -3123 0
1 -705 3093 0
1 705 -3063 0
1 705 3033 0
1 -705 -3003 0
1 -3063 750 0
1 3063 630 0
1 -3063 735 0
1 -3078 705 0
1 -3078 675 0
1 -3078 -750 0
1 3078 -720 0
1 -3078 -690 0
1 3093 -751 0
1 3093 630 0
1 -3108 736 0
1 3108 705 0
1 3108 -675 0
1 3108 721 0
1 3108 -690 0
1 -3108 660 0
1 -720 -3078 0
1 -720 -735 0
1 -720 3063 0
1 -735 -736 0
1 735 -3018 0
1 -735 3033 0
1 -750 -751 0
1 -750 -3003 0
1 -765 -3078 0
1 765 3063 0
1 765 3033 0
1 3003 -750 0
1 3003 -720 0
1 -3003 690 0
1 -3003 735 0
1 3018 -3003 0
1 -3018 765 0
1 3033 3048 0
1 -3033 -750 0
1 3033 720 0
1 -3033 3032 0
1 3033 735 0
1 3048 -3047 0
1 3048 -690 0
1 3048 -765 0
1 3048 735 0
1 -243 3585 0
1 243 3691 0
1 -243 -3630 0
1 243 -3706 0
1 258 3585 0
1 258 -3691 0
1 258 -3661 0
1 258 -3630 0
1 -258 3600 0
1 -258 -243 0
1 -273 -288 0
1 273 -3585 0
1 273 3616 0
1 273 -3631 0
1 -273 272 0
1 273 -3646 0
1 -288 3616 0
1 -288 -3691 0
1 -288 3631 0
1 -288 3570 0
1 288 -3601 0
1 288 3706 0
1 288 -287 0
1 3661 258 0
1 -3661 -3660 0
1 3661 303 0
1 3661 273 0
1 -3661 -3676 0
1 3676 -3661 0
1 -3676 -303 0
1 3676 -348 0
1 3676 -3677 0
1 -3691 -288 0
1 -3691 -3692 0
1 -3691 -243 0
1 -3691 3706 0
1 3706 3707 0
1 -3706 3705 0
1 303 3555 0
1 -303 -3526 0
1 303 3646 0
1 -303 3661 0
1 303 -302 0
1 303 3511 0
1 303 -3676 0
1 318 -3661 0
1 318 3570 0
1 318 -3646 0
1 333 -3616 0
1 -333 3586 0
1 -333 -3526 0
1 333 3661 0
1 -333 348 0
1 -348 3586 0
1 -348 -3526 0
1 348 -3661 0
1 -348 -3631 0
1 348 -3571 0
1 348 -3541 0
1 -3601 363 0
1 -3601 273 0
1 3601 3602 0
1 -3601 348 0
1 -3616 -3617 0
1 3616 -393 0
1 3616 333 0
1 3616 -303 0
1 -3616 378 0
1 -3616 -318 0
1 -3616 -3615 0
1 -3631 -3646 0
1 -3631 -3632 0
1 3631 -348 0
1 3646 423 0
1 -3646 -333 0
1 3646 303 0
1 3646 3631 0
1 3646 -273 0
1 -3646 -3645 0
1 -3646 318 0
1 3646 -3647 0
1 363 -3556 0
1 363 -3526 0
1 -363 3601 0
1 -363 3451 0
1 378 3556 0
1 378 3481 0
1 378 3451 0
1 -378 -377 0
1 393 3556 0
1 393 3527 0
1 393 392 0
1 393 3466 0
1 -393 3601 0
1 -393 -408 0
1 393 3482 0
1 408 -3616 0
1 -408 -3527 0
1 -408 -3541 0
1 408 3512 0
1 3541 -3556 0
1 3541 363 0
1 -3541 333 0
1 3541 437 0
1 -3541 3542 0
1 3541 408 0
1 -3556 483 0
1 3556 3555 0
1 3556 467 0
1 3556 -437 0
1 3571 393 0
1 3571 -498 0
1 3571 438 0
1 -3586 453 0
1 -3586 378 0
1 -422 -3527 0
1 422 3466 0
1 -422 -3436 0
1 -422 -3406 0
1 -422 437 0
1 -422 3541 0
1 -422 3451 0
1 -422 3421 0
1 -422 -3391 0
1 -437 422 0
1 -437 -3527 0
1 437 -3436 0
1 -437 3406 0
1 437 -3541 0
1 437 3512 0
1 -437 3451 0
1 -437 3391 0
1 -452 -451 0
1 -452 -453 0
1 -452 3497 0
1 452 -3437 0
1 452 -3406 0
1 -452 467 0
1 -452 -3541 0
1 -452 -3512 0
1 -452 3422 0
1 452 3391 0
1 467 -452 0
1 -467 3467 0
1 467 3406 0
1 467 -3482 0
1 -467 3452 0
1 -3482 482 0
1 3482 -422 0
1 3482 467 0
1 3482 408 0
1 -3482 -3483 0
1 -3497 452 0
1 -3497 -422 0
1 -3497 3496 0
1 3497 -393 0
1 -3497 -527 0
1 3497 467 0
1 -3497 408 0
1 -3497 -543 0
1 3512 -483 0
1 -3512 393 0
1 3512 -558 0
1 3512 528 0
1 -3512 -437 0
1 3512 -543 0
1 3527 -513 0
1 -3527 452 0
1 3527 558 0
1 3527 -498 0
1 -3527 -467 0
1 -3527 543 0
1 -482 -3361 0
1 -482 -483 0
1 482 3467 0
1 482 3452 0
1 -482 -3422 0
1 -497 482 0
1 -497 3332 0
1 497 -3437 0
1 497 3347 0
1 -512 -3332 0
1 -512 3437 0
1 512 3377 0
1 -527 -3467 0
1 527 3437 0
1 -527 -3377 0
1 -527 -3482 0
1 -527 3452 0
1 3422 617 0
1 -3422 587 0
1 3422 527 0
1 3422 -497 0
1 3422 -467 0
1 3422 -602 0
1 3422 3423 0
1 3437 512 0
1 3437 482 0
1 3437 452 0
1 3437 -617 0
1 3437 -587 0
1 -3437 -3436 0
1 -3437 -527 0
1 -3437 -497 0
1 -3437 -467 0
1 3437 -572 0
1 -3452 -452 0
1 -3452 -617 0
1 -3452 -558 0
1 -3452 3453 0
1 3452 -3451 0
1 3452 -573 0
1 -3452 543 0
1 3467 512 0
1 -3467 -482 0
1 3467 452 0
1 3467 3466 0
1 -3467 588 0
1 3467 -3468 0
1 3467 -558 0
1 3467 527 0
1 3467 -602 0
1 -557 3302 0
1 557 3437 0
1 557 558 0
1 -557 3377 0
1 -572 -3303 0
1 572 587 0
1 -572 3377 0
1 -572 3348 0
1 572 3318 0
1 572 573 0
1 572 3422 0
1 -587 3392 0
1 -587 3362 0
1 -587 -3333 0
1 587 3272 0
1 -587 3437 0
1 587 -3407 0
1 587 3377 0
1 587 3287 0
1 587 572 0
1 587 3422 0
1 -3362 677 0
1 -3362 646 0
1 3362 616 0
1 3362 -587 0
1 -3362 -557 0
1 3362 3377 0
1 3377 3362 0
1 3377 646 0
1 3377 3376 0
1 -3377 -3378 0
1 -3392 677 0
1 3392 -617 0
1 3392 -587 0
1 3392 -3407 0
1 -3392 -662 0
1 -3392 632 0
1 3392 3391 0
1 -3407 512 0
1 3407 -3392 0
1 3407 647 0
1 -3407 -587 0
1 3407 527 0
1 -3407 662 0
1 3407 572 0
1 -601 -3362 0
1 -601 -3333 0
1 -601 3303 0
1 601 3377 0
1 -601 -3257 0
1 -601 3227 0
1 -616 3362 0
1 -616 3257 0
1 616 3333 0
1 616 -3272 0
1 616 3303 0
1 -616 -3212 0
1 -616 3377 0
1 -616 3348 0
1 616 3287 0
1 -631 -3333 0
1 -631 3303 0
1 -631 3243 0
1 -631 -630 0
1 631 -632 0
1 -646 647 0
1 -646 -3303 0
1 646 3243 0
1 -646 3377 0
1 646 -631 0
1 646 -3227 0
1 3303 706 0
1 3303 676 0
1 3303 -616 0
1 3303 587 0
1 -3303 691 0
1 3303 572 0
1 -3318 -737 0
1 -3318 706 0
1 -3318 676 0
1 3318 -646 0
1 -3318 -587 0
1 -3318 722 0
1 3318 -691 0
1 3318 -661 0
1 3318 -3317 0
1 -3318 -572 0
1 3333 737 0
1 3333 3332 0
1 3333 616 0
1 3333 722 0
1 -3333 -662 0
1 -3333 631 0
1 3333 601 0
1 -3348 -616 0
1 -3348 -662 0
1 3348 601 0
1 661 -676 0
1 661 3243 0
1 661 -3212 0
1 661 660 0
1 -661 3227 0
1 661 -3197 0
1 -676 -3303 0
1 -676 -3243 0
1 676 3318 0
1 691 3243 0
1 -691 3153 0
1 691 3318 0
1 706 3168 0
1 -706 -705 0
1 -706 707 0
1 706 3243 0
1 -706 691 0
1 -706 3318 0
1 -706 -3288 0
1 -3243 676 0
1 3243 3242 0
1 3243 751 0
1 -3243 -721 0
1 3243 631 0
1 3243 3258 0
1 3258 706 0
1 -3258 -676 0
1 3258 646 0
1 3258 -631 0
1 -3258 766 0
1 3273 -706 0
1 -3273 676 0
1 -3273 691 0
1 3273 3288 0
1 3288 706 0
1 3288 676 0
1 -3288 -631 0
1 -3288 3287 0
1 -3288 -767 0
1 721 3138 0
1 -721 3108 0
1 721 3153 0
1 721 3093 0
1 721 -3198 0
1 -736 3168 0
1 736 -737 0
1 736 3213 0
1 736 3183 0
1 -736 -721 0
1 736 -3123 0
1 -736 3093 0
1 736 3258 0
1 -736 3228 0
1 751 -3213 0
1 751 -750 0
1 751 -3183 0
1 -751 3198 0
1 -751 -3228 0
1 -766 3243 0
1 766 3198 0
1 -3183 -736 0
1 3183 -751 0
1 -3183 -766 0
1 3198 3183 0
1 3198 691 0
1 -3198 766 0
1 -3213 736 0
1 3213 -751 0
1 3213 721 0
1 -3213 -3228 0
1 -3213 691 0
1 -3213 766 0
1 3228 3213 0
1 3228 -3227 0
1 423 -3616 0
1 423 422 0
1 -423 3631 0
1 438 -3586 0
1 -438 3662 0
1 438 3631 0
1 -438 3601 0
1 -438 437 0
1 -453 -3586 0
1 -453 -452 0
1 -453 -3692 0
1 453 3662 0
1 453 3571 0
1 453 -3647 0
1 -468 453 0
1 468 -3632 0
1 -468 -3602 0
1 -468 -3571 0
1 -468 -3707 0
1 468 3647 0
1 3662 -513 0
1 3662 3661 0
1 -3662 -528 0
1 3662 -498 0
1 3677 483 0
1 -3677 -423 0
1 3677 -3662 0
1 3677 -438 0
1 -3677 -3676 0
1 3677 -3678 0
1 3692 453 0
1 -3692 -423 0
1 3692 438 0
1 3707 -453 0
1 3707 423 0
1 -3707 3692 0
1 -3707 468 0
1 -3707 -438 0
1 3707 -3706 0
1 -483 3632 0
1 483 -498 0
1 483 3571 0
1 483 -3512 0
1 -483 3677 0
1 -498 3617 0
1 -498 -483 0
1 -498 -3527 0
1 -498 -3632 0
1 498 497 0
1 -498 -3541 0
1 -498 -3677 0
1 513 -512 0
1 -513 -3557 0
1 -513 -3527 0
1 513 -3662 0
1 513 528 0
1 513 3677 0
1 528 -3617 0
1 528 3557 0
1 -528 -3542 0
1 -528 3647 0
1 3602 -3617 0
1 -3602 -483 0
1 -3602 453 0
1 3602 558 0
1 3602 -528 0
1 3602 498 0
1 -3602 603 0
1 3602 543 0
1 -3617 -513 0
1 -3617 -3618 0
1 -3617 -618 0
1 -3617 -588 0
1 3617 558 0
1 3617 -528 0
1 -3617 -3602 0
1 3617 -468 0
1 3617 603 0
1 3617 -543 0
1 -3632 -513 0
1 -3632 3633 0
1 3632 468 0
1 3647 513 0
1 3647 -453 0
1 3647 618 0
1 -3647 498 0
1 -3647 -468 0
1 3647 -603 0
1 -543 558 0
1 543 -3572 0
1 543 -3482 0
1 -543 3452 0
1 -558 -3587 0
1 -558 3497 0
1 558 -3542 0
1 -558 -3512 0
1 573 -3617 0
1 -573 3587 0
1 573 -3557 0
1 -573 3528 0
1 -573 3498 0
1 -573 3542 0
1 -588 -3587 0
1 -588 -3498 0
1 -588 3513 0
1 588 3483 0
1 -588 3452 0
1 3542 678 0
1 -3542 602 0
1 -3542 543 0
1 3557 -528 0
1 3572 -678 0
1 3572 -3571 0
1 -3572 -3573 0
1 -3572 633 0
1 3587 3588 0
1 3587 -678 0
1 3587 588 0
1 3587 -558 0
1 3587 -528 0
1 -3587 573 0
1 -3587 -543 0
1 -602 -3392 0
1 602 3437 0
1 617 3467 0
1 617 3498 0
1 -617 -3437 0
1 -632 -3392 0
1 -632 3557 0
1 632 -3528 0
1 -632 3468 0
1 -632 -3542 0
1 -632 631 0
1 647 648 0
1 647 -3468 0
1 647 3407 0
1 647 -3542 0
1 -647 3513 0
1 647 3483 0
1 -647 3423 0
1 -3483 692 0
1 -3483 662 0
1 -3483 573 0
1 3498 -707 0
1 -3498 647 0
1 3498 617 0
1 3498 588 0
1 3498 723 0
1 -3498 -632 0
1 -3498 3483 0
1 -3513 708 0
1 -3513 678 0
1 3513 -3512 0
1 -3513 588 0
1 3513 -693 0
1 3513 663 0
1 3513 602 0
1 3528 3527 0
1 -3528 -723 0
1 3528 3513 0
1 662 3362 0
1 662 -3407 0
1 662 -661 0
1 -662 -3453 0
1 662 -3423 0
1 -677 3392 0
1 -677 -3333 0
1 677 -678 0
1 677 -3377 0
1 677 3423 0
1 -692 -3393 0
1 692 3363 0
1 692 691 0
1 692 -3483 0
1 692 -3453 0
1 -707 3393 0
1 -707 708 0
1 -707 -3378 0
1 707 3348 0
1 707 3483 0
1 -3423 737 0
1 -3423 -707 0
1 -3423 -677 0
1 3423 -647 0
1 -3423 3438 0
1 -3423 -752 0
1 3423 722 0
1 -3423 662 0
1 3438 677 0
1 3438 -3423 0
1 -3438 692 0
1 -3438 662 0
1 -3438 -632 0
1 3453 768 0
1 3453 -738 0
1 3453 -677 0
1 -3453 3468 0
1 3453 -723 0
1 -3453 692 0
1 3453 -662 0
1 -3453 -3452 0
1 -3468 -707 0
1 -3468 677 0
1 -3468 -753 0
1 3468 -723 0
1 -3468 692 0
1 -3468 -3453 0
1 3468 662 0
1 -722 3363 0
1 722 3333 0
1 722 3408 0
1 722 -3288 0
1 737 736 0
1 -737 -3363 0
1 737 -3303 0
1 -737 3408 0
1 -737 -722 0
1 -737 -3318 0
1 737 -3423 0
1 752 -3393 0
1 -752 -3363 0
1 -752 3438 0
1 752 -3408 0
1 752 753 0
1 -752 -3378 0
1 752 767 0
1 -767 768 0
1 -767 3363 0
1 -767 -3378 0
1 767 3288 0
1 3363 737 0
1 -3363 -752 0
1 3378 -707 0
1 -3378 3363 0
1 3378 752 0
1 -3378 -3377 0
1 3378 -692 0
1 -3393 3392 0
1 3393 -737 0
1 3393 692 0
1 3408 737 0
1 3408 -707 0
1 603 -3617 0
1 -603 3663 0
1 618 3587 0
1 618 617 0
1 -618 -3693 0
1 -618 -3572 0
1 -618 603 0
1 618 3678 0
1 618 3647 0
1 -633 3618 0
1 -633 -648 0
1 -633 3663 0
1 633 -3633 0
1 -633 -3603 0
1 -633 -632 0
1 -633 -3678 0
1 -648 -3648 0
1 -648 3633 0
1 648 3603 0
1 648 3572 0
1 648 -633 0
1 648 -3708 0
1 -648 -3678 0
1 3663 -633 0
1 -3663 603 0
1 -3678 -708 0
1 3678 3663 0
1 -3678 663 0
1 3678 603 0
1 3678 -3677 0
1 3693 3708 0
1 -3708 -618 0
1 -3708 3693 0
1 3708 -633 0
1 -663 3618 0
1 -663 3528 0
1 663 -3663 0
1 -663 3633 0
1 -663 3603 0
1 -663 3542 0
1 -663 -3678 0
1 678 3528 0
1 -678 3633 0
1 -678 -3603 0
1 -678 -663 0
1 -693 3618 0
1 -693 -3588 0
1 -693 3558 0
1 693 -3663 0
1 693 692 0
1 693 -3678 0
1 708 -3588 0
1 708 -3603 0
1 -708 -693 0
1 708 3573 0
1 -3603 -768 0
1 -3603 -738 0
1 3603 -3618 0
1 -3603 648 0
1 -3603 -723 0
1 -3603 663 0
1 3618 738 0
1 -3618 -708 0
1 3618 -693 0
1 -3633 678 0
1 -3633 -3632 0
1 3633 663 0
1 3633 -633 0
1 -3648 678 0
1 -3648 693 0
1 -3648 3647 0
1 723 -3588 0
1 -723 -3468 0
1 723 -3603 0
1 -723 -3513 0
1 -738 -737 0
1 -738 -3588 0
1 738 723 0
1 738 -3453 0
1 -753 768 0
1 753 752 0
1 -753 3543 0
1 -768 -3618 0
1 -768 -3588 0
1 768 3558 0
1 768 -753 0
1 768 -3603 0
1 -768 3573 0
1 -768 3543 0
1 -3543 -768 0
1 3543 -738 0
1 -3543 708 0
1 3543 723 0
1 3543 693 0
1 3543 -3542 0
1 3558 768 0
1 3558 738 0
1 -3558 -3557 0
1 -3558 723 0
1 -3558 3543 0
1 3573 723 0
1 -3573 -3572 0
1 3573 -693 0
1 -3588 -738 0
1 -3588 -3587 0
1 3588 -708 0
1 3588 -753 0
